{"lblp_lower": [138.49526022088673, 182.9589883754875, 189.43395348837208, 190.945, 191.29999999999998], "cuttingPlaneBendInfo": [{"tot_cut_value": 0, "TOT_gen_cut": 0, "tot_time_opt": 0, "max_time_opt": 0}, {"tot_cut_value": 0, "TOT_gen_cut": 0, "tot_time_opt": 0, "max_time_opt": 0}, {"tot_cut_value": 0, "TOT_gen_cut": 0, "tot_time_opt": 0, "max_time_opt": 0}, {"tot_cut_value": 0, "TOT_gen_cut": 0, "tot_time_opt": 0, "max_time_opt": 0}, {"tot_cut_value": 0, "TOT_gen_cut": 0, "tot_time_opt": 0, "max_time_opt": 0}], "time_compress": [0, 0, 0, 0, 0], "ub_lp": [231.20000000000002, 211.2, 191.29999999999998, 191.29999999999998, 191.29999999999998], "prob_sizes_at_start": [{"timeGraph": 37, "capGraph": 52, "ngGraph": 27}, {"timeGraph": 53, "capGraph": 88, "ngGraph": 42}, {"timeGraph": 56, "capGraph": 126, "ngGraph": 66}, {"timeGraph": 60, "capGraph": 208, "ngGraph": 73}, {"timeGraph": 60, "capGraph": 222, "ngGraph": 78}], "prob_sizes_after_compress": [{"timeGraph": 5, "capGraph": 20, "ngGraph": 8}, {"timeGraph": 17, "capGraph": 28, "ngGraph": 14}, {"timeGraph": 26, "capGraph": 66, "ngGraph": 21}, {"timeGraph": 25, "capGraph": 109, "ngGraph": 26}, {"timeGraph": 19, "capGraph": 108, "ngGraph": 21}], "prob_sizes_after_split": [{"timeGraph": 53, "capGraph": 88, "ngGraph": 42}, {"timeGraph": 56, "capGraph": 126, "ngGraph": 66}, {"timeGraph": 60, "capGraph": 208, "ngGraph": 73}, {"timeGraph": 60, "capGraph": 222, "ngGraph": 78}, {"timeGraph": 53, "capGraph": 151, "ngGraph": 43}], "did_compress": [true, true, true, true, true], "lp_time_project": [0.024549245834350586, 0.01563882827758789, 0.029235124588012695, 0.020586013793945312, 0.020715713500976562], "lp_time_LB": [0.010174989700317383, 0.023084640502929688, 0.02152395248413086, 0.024686098098754883, 0.014267206192016602], "ilp_time": [], "history_of_graphs_by_iter": [], "ROOT_LP_PRIOR_ADDING_CUTS": 191.29999999999998, "OUR_ilp_objective": 191.29999999999998, "OUR_MIP_Lower_Bound": 191.29999999999998, "OUR_ilp_time": 0.01454305648803711, "OUR_gurobi_MILP_str": "Gurobi Optimizer version 12.0.1 build v12.0.1rc0 (mac64[arm] - Darwin 24.5.0 24F74)\n\nCPU model: Apple M1\nThread count: 8 physical cores, 8 logical processors, using up to 8 threads\n\nNon-default parameters:\nTimeLimit  1000\n\nWLS license 2690165 - registered to Optym\nOptimize a model with 2622 rows, 1758 columns and 9273 nonzeros\nModel fingerprint: 0x569f760f\nVariable types: 1327 continuous, 431 integer (431 binary)\nCoefficient statistics:\n  Matrix range     [1e+00, 6e+02]\n  Objective range  [1e+00, 4e+01]\n  Bounds range     [1e+00, 1e+03]\n  RHS range        [1e+00, 6e+02]\nPresolve removed 2317 rows and 1316 columns\nPresolve time: 0.01s\nPresolved: 305 rows, 442 columns, 1587 nonzeros\nVariable types: 410 continuous, 32 integer (32 binary)\nFound heuristic solution: objective 251.5000000\nFound heuristic solution: objective 218.8000000\nFound heuristic solution: objective 216.5000000\n\nRoot relaxation: objective 1.913000e+02, 98 iterations, 0.00 seconds (0.00 work units)\n\n    Nodes    |    Current Node    |     Objective Bounds      |     Work\n Expl Unexpl |  Obj  Depth IntInf | Incumbent    BestBd   Gap | It/Node Time\n\n*    0     0               0     191.3000000  191.30000  0.00%     -    0s\n\nExplored 1 nodes (98 simplex iterations) in 0.01 seconds (0.01 work units)\nThread count was 8 (of 8 available processors)\n\nSolution count 4: 191.3 216.5 218.8 251.5 \n\nOptimal solution found (tolerance 1.00e-04)\nBest objective 1.913000000000e+02, best bound 1.913000000000e+02, gap 0.0000%\n", "jy_opt": {"ParetoEps": 1e-05, "turn_off_time_windows": false, "deactivate_time_graph": false, "deactivate_demand_graph": false, "epsilon": 0.0001, "weight_slack_projector": 1e-05, "weight_compress": 0.01, "num_cust_use": 25, "dem_step_sz": 1, "time_step_sz": 25, "use_compression": 1, "max_iterations_loop_compress_project": 100, "do_round_dist_times": 1, "my_shift_bet_time_win": 0.0001, "num_terms_per_bin_init_construct": 10, "allOneBig_init": 0, "min_inc_2_compress": 0.1, "save_graph_each_iter": 0, "use_Xpress": 0, "use_ineq": 1, "xpress_file_loc": "/Users/julian/Documents/FICO_Xpress_Config/xpauth.xpr", "run_baseline": 0, "verbose": 0, "use_NG_graph": 1, "num_NG": 5, "in_demo_mode": 0, "threshold_split": 0.01, "offset_cost_edge_project": 0, "use_classic_compress": 1, "use_classic_compress_last": 0, "num_thresh_split_projector": 10, "lplb_solver": 4, "compresss_solver": 0, "proj_solver": 4, "use_julians_custom_lp_solver": 0, "do_ilp": 1, "roundingDiscretization_num_digits_keep": 3, "doExrtraRemovalEdgesLB": 0, "use_gurobi": 1, "max_ILP_time": 1000, "use_fancy_ng_graph": 1, "use_dem_graph": 1, "use_time_graph": 1, "num_multiplys_demand": 0, "DEBUG_ALLOW_DUMB_EDGES": 0, "add_all_ng_split_at_end": 0, "do_split_based_init": 1, "think_compress": 0, "use_delta_in_milp": [1], "use_delta_in_lp": 1, "turn_off_non_active_fg_project": 0, "use_new_valid_ineq": 0, "digit_mult_use": 10, "use_branch_on_g": true, "LAB_MP_ON": 0, "LAB_MP_neigh_use_power": 10, "LAB_MP_num_ineq_use": 10, "do_remove_actions_from_incumbant": 1, "ub_use_remove": 191.3, "use_packing_in_construction": 1, "maxVarsAdd_in_ITER": 10, "use_ng_size_init": 0, "do_presolve": 0, "use_diving_ineq": 1, "BEND_MIN_LP_OBJECTIVE_CUT": 0.1, "BEND_USE_RAND": 0, "BEND_MAX_SIZE_CHOOSE_K": 230, "BEND_VAL_STOP_ADDING_CUTS": 100000000, "BEND_MY_SIZES_USE": [9], "NUMERICAL_BEND_OFFSET_COST_CUT": 0.0001, "NUMERICAL_BEND_EPSILON_MULT_PARETO_OBJ": 0.001, "NO_PARETO_NUMERICAL_BEND_OFFSET_COST_CUT": 0, "NO_PARETO_BEND_VAL_STOP_ADDING_CUTS": 1, "NO_PARETO_EPSILON_MAX_VAL_CON": 0.01, "BENDERS_NEIGH_SZ_USE": 9, "Actions_of_given_sol": [], "all_vars_binary": 0, "use_ng": 1, "restore_after_each_step": 1, "compress_solver": 1, "DEBUG_NG_turn_off_CLEAN": false, "max_nodes_split": Infinity}, "output_ilp_solution": {"act_0_26": 1, "act_1_0": 1, "act_2_6": 1, "act_3_1": 1, "act_4_2": 1, "act_5_3": 1, "act_6_7": 1, "act_7_9": 1, "act_8_5": 1, "act_9_10": 1, "act_10_8": 1, "act_11_26": 1, "act_12_16": 1, "act_13_11": 1, "act_14_15": 1, "act_15_13": 1, "act_16_17": 1, "act_17_18": 1, "act_18_14": 1, "act_19_23": 1, "act_20_26": 1, "act_21_20": 1, "act_22_21": 1, "act_23_24": 1, "act_24_22": 1, "act_25_4": 1, "act_25_12": 1, "act_25_19": 1}, "Actions_of_given_sol": "none just used source and sink terms", "actions_used": ["act_0_26", "act_1_0", "act_2_6", "act_3_1", "act_4_2", "act_5_3", "act_6_7", "act_7_9", "act_8_5", "act_9_10", "act_10_8", "act_11_26", "act_12_16", "act_13_11", "act_14_15", "act_15_13", "act_16_17", "act_17_18", "act_18_14", "act_19_23", "act_20_26", "act_21_20", "act_22_21", "act_23_24", "act_24_22", "act_25_4", "act_25_12", "act_25_19"], "init_default_solution_is_empty": false, "objective_of_initial_sol": 1130.3999999999999, "my_paths": "[[25, 4, 2, 6, 7, 9, 10, 8, 5, 3, 1, 0, 26], [25, 12, 16, 17, 18, 14, 15, 13, 11, 26], [25, 19, 23, 24, 22, 21, 20, 26]]"}